robust/generate/spp_dkp_Lefebvre_et_al_2026/src/shortest_path_6_7.kp
49
95

[1.19 0.98 3.67 3.53 2.7 2.24 2.17 0.83 3.05 3.55 2.86 1.97 1.75 3.18 3.34 0.91 3.81 0.23 1.15 1.24 2.78 2.8 3.73 2.4]

[69 2 66 18 4 68 25 60 26 9 95 93 63 57 21 3 15 26 60 54 73 27 33 47]
