robust/generate/spp_dkp_Lefebvre_et_al_2026/src/shortest_path_6_7.lp
\ Model sp_6_7
\ LP format - for model browsing. Use MPS format to capture full model detail.
\ Signature: 0x1a3fed327f855427
Minimize
  53.25 y[0,1] + 61.59 y[0,2] + 65.46 y[0,3] + 43.05 y[0,4] + 53.08 y[0,5]
   + 53.25 y[1,0] + 54.08 y[1,3] + 61.59 y[2,0] + 42.45 y[2,3]
   + 36.14 y[2,4] + 36.01 y[2,5] + 65.46 y[3,0] + 54.08 y[3,1]
   + 42.45 y[3,2] + 67.68 y[3,4] + 72.45 y[3,5] + 43.05 y[4,0]
   + 36.14 y[4,2] + 67.68 y[4,3] + 10.05 y[4,5] + 53.08 y[5,0]
   + 36.01 y[5,2] + 72.45 y[5,3] + 10.05 y[5,4] + 5.325 r[0,1]
   + 6.159 r[0,2] + 6.546 r[0,3] + 4.305 r[0,4] + 5.308 r[0,5]
   + 5.325 r[1,0] + 5.408 r[1,3] + 6.159 r[2,0] + 4.245 r[2,3]
   + 3.614 r[2,4] + 3.601 r[2,5] + 6.546 r[3,0] + 5.408 r[3,1]
   + 4.245 r[3,2] + 6.768 r[3,4] + 7.245 r[3,5] + 4.305 r[4,0]
   + 3.614 r[4,2] + 6.768 r[4,3] + 1.005 r[4,5] + 5.308 r[5,0]
   + 3.601 r[5,2] + 7.245 r[5,3] + 1.005 r[5,4]
Subject To
 flow_cons_inner_nodes[0]: - y[0,1] - y[0,2] - y[0,3] - y[0,4] - y[0,5]
   + y[1,0] + y[2,0] + y[3,0] + y[4,0] + y[5,0] = 0
 flow_cons_inner_nodes[2]: y[0,2] - y[2,0] - y[2,3] - y[2,4] - y[2,5]
   + y[3,2] + y[4,2] + y[5,2] = 0
 flow_cons_inner_nodes[3]: y[0,3] + y[1,3] + y[2,3] - y[3,0] - y[3,1]
   - y[3,2] - y[3,4] - y[3,5] + y[4,3] + y[5,3] = 0
 flow_cons_inner_nodes[4]: y[0,4] + y[2,4] + y[3,4] - y[4,0] - y[4,2]
   - y[4,3] - y[4,5] + y[5,4] = 0
 flow_cons_source: - y[0,1] + y[1,0] + y[1,3] - y[3,1] = 1
 flow_cons_target: y[0,5] + y[2,5] + y[3,5] + y[4,5] - y[5,0] - y[5,2]
   - y[5,3] - y[5,4] = 1
 primal_lower: - 1.19 y[0,1] - 0.98 y[0,2] - 3.67 y[0,3] - 3.53 y[0,4]
   - 2.7 y[0,5] - 2.24 y[1,0] - 2.17 y[1,3] - 0.83 y[2,0] - 3.05 y[2,3]
   - 3.55 y[2,4] - 2.86 y[2,5] - 1.97 y[3,0] - 1.75 y[3,1] - 3.18 y[3,2]
   - 3.34 y[3,4] - 0.91 y[3,5] - 3.81 y[4,0] - 0.23 y[4,2] - 1.15 y[4,3]
   - 1.24 y[4,5] - 2.78 y[5,0] - 2.8 y[5,2] - 3.73 y[5,3] - 2.4 y[5,4]
   + 69 u[0,1] + 2 u[0,2] + 66 u[0,3] + 18 u[0,4] + 4 u[0,5] + 68 u[1,0]
   + 25 u[1,3] + 60 u[2,0] + 26 u[2,3] + 9 u[2,4] + 95 u[2,5] + 93 u[3,0]
   + 63 u[3,1] + 57 u[3,2] + 21 u[3,4] + 3 u[3,5] + 15 u[4,0] + 26 u[4,2]
   + 60 u[4,3] + 54 u[4,5] + 73 u[5,0] + 27 u[5,2] + 33 u[5,3] + 47 u[5,4]
   <= 95
 mccormick1[0,1]: - u[0,1] + r[0,1] <= 0
 mccormick1[0,2]: - u[0,2] + r[0,2] <= 0
 mccormick1[0,3]: - u[0,3] + r[0,3] <= 0
 mccormick1[0,4]: - u[0,4] + r[0,4] <= 0
 mccormick1[0,5]: - u[0,5] + r[0,5] <= 0
 mccormick1[1,0]: - u[1,0] + r[1,0] <= 0
 mccormick1[1,3]: - u[1,3] + r[1,3] <= 0
 mccormick1[2,0]: - u[2,0] + r[2,0] <= 0
 mccormick1[2,3]: - u[2,3] + r[2,3] <= 0
 mccormick1[2,4]: - u[2,4] + r[2,4] <= 0
 mccormick1[2,5]: - u[2,5] + r[2,5] <= 0
 mccormick1[3,0]: - u[3,0] + r[3,0] <= 0
 mccormick1[3,1]: - u[3,1] + r[3,1] <= 0
 mccormick1[3,2]: - u[3,2] + r[3,2] <= 0
 mccormick1[3,4]: - u[3,4] + r[3,4] <= 0
 mccormick1[3,5]: - u[3,5] + r[3,5] <= 0
 mccormick1[4,0]: - u[4,0] + r[4,0] <= 0
 mccormick1[4,2]: - u[4,2] + r[4,2] <= 0
 mccormick1[4,3]: - u[4,3] + r[4,3] <= 0
 mccormick1[4,5]: - u[4,5] + r[4,5] <= 0
 mccormick1[5,0]: - u[5,0] + r[5,0] <= 0
 mccormick1[5,2]: - u[5,2] + r[5,2] <= 0
 mccormick1[5,3]: - u[5,3] + r[5,3] <= 0
 mccormick1[5,4]: - u[5,4] + r[5,4] <= 0
 mccormick2[0,1]: - y[0,1] + r[0,1] <= 0
 mccormick2[0,2]: - y[0,2] + r[0,2] <= 0
 mccormick2[0,3]: - y[0,3] + r[0,3] <= 0
 mccormick2[0,4]: - y[0,4] + r[0,4] <= 0
 mccormick2[0,5]: - y[0,5] + r[0,5] <= 0
 mccormick2[1,0]: - y[1,0] + r[1,0] <= 0
 mccormick2[1,3]: - y[1,3] + r[1,3] <= 0
 mccormick2[2,0]: - y[2,0] + r[2,0] <= 0
 mccormick2[2,3]: - y[2,3] + r[2,3] <= 0
 mccormick2[2,4]: - y[2,4] + r[2,4] <= 0
 mccormick2[2,5]: - y[2,5] + r[2,5] <= 0
 mccormick2[3,0]: - y[3,0] + r[3,0] <= 0
 mccormick2[3,1]: - y[3,1] + r[3,1] <= 0
 mccormick2[3,2]: - y[3,2] + r[3,2] <= 0
 mccormick2[3,4]: - y[3,4] + r[3,4] <= 0
 mccormick2[3,5]: - y[3,5] + r[3,5] <= 0
 mccormick2[4,0]: - y[4,0] + r[4,0] <= 0
 mccormick2[4,2]: - y[4,2] + r[4,2] <= 0
 mccormick2[4,3]: - y[4,3] + r[4,3] <= 0
 mccormick2[4,5]: - y[4,5] + r[4,5] <= 0
 mccormick2[5,0]: - y[5,0] + r[5,0] <= 0
 mccormick2[5,2]: - y[5,2] + r[5,2] <= 0
 mccormick2[5,3]: - y[5,3] + r[5,3] <= 0
 mccormick2[5,4]: - y[5,4] + r[5,4] <= 0
 mccormick3[0,1]: - y[0,1] - u[0,1] + r[0,1] >= -1
 mccormick3[0,2]: - y[0,2] - u[0,2] + r[0,2] >= -1
 mccormick3[0,3]: - y[0,3] - u[0,3] + r[0,3] >= -1
 mccormick3[0,4]: - y[0,4] - u[0,4] + r[0,4] >= -1
 mccormick3[0,5]: - y[0,5] - u[0,5] + r[0,5] >= -1
 mccormick3[1,0]: - y[1,0] - u[1,0] + r[1,0] >= -1
 mccormick3[1,3]: - y[1,3] - u[1,3] + r[1,3] >= -1
 mccormick3[2,0]: - y[2,0] - u[2,0] + r[2,0] >= -1
 mccormick3[2,3]: - y[2,3] - u[2,3] + r[2,3] >= -1
 mccormick3[2,4]: - y[2,4] - u[2,4] + r[2,4] >= -1
 mccormick3[2,5]: - y[2,5] - u[2,5] + r[2,5] >= -1
 mccormick3[3,0]: - y[3,0] - u[3,0] + r[3,0] >= -1
 mccormick3[3,1]: - y[3,1] - u[3,1] + r[3,1] >= -1
 mccormick3[3,2]: - y[3,2] - u[3,2] + r[3,2] >= -1
 mccormick3[3,4]: - y[3,4] - u[3,4] + r[3,4] >= -1
 mccormick3[3,5]: - y[3,5] - u[3,5] + r[3,5] >= -1
 mccormick3[4,0]: - y[4,0] - u[4,0] + r[4,0] >= -1
 mccormick3[4,2]: - y[4,2] - u[4,2] + r[4,2] >= -1
 mccormick3[4,3]: - y[4,3] - u[4,3] + r[4,3] >= -1
 mccormick3[4,5]: - y[4,5] - u[4,5] + r[4,5] >= -1
 mccormick3[5,0]: - y[5,0] - u[5,0] + r[5,0] >= -1
 mccormick3[5,2]: - y[5,2] - u[5,2] + r[5,2] >= -1
 mccormick3[5,3]: - y[5,3] - u[5,3] + r[5,3] >= -1
 mccormick3[5,4]: - y[5,4] - u[5,4] + r[5,4] >= -1
Bounds
Binaries
 y[0,1] y[0,2] y[0,3] y[0,4] y[0,5] y[1,0] y[1,3] y[2,0] y[2,3] y[2,4]
 y[2,5] y[3,0] y[3,1] y[3,2] y[3,4] y[3,5] y[4,0] y[4,2] y[4,3] y[4,5]
 y[5,0] y[5,2] y[5,3] y[5,4] u[0,1] u[0,2] u[0,3] u[0,4] u[0,5] u[1,0]
 u[1,3] u[2,0] u[2,3] u[2,4] u[2,5] u[3,0] u[3,1] u[3,2] u[3,4] u[3,5]
 u[4,0] u[4,2] u[4,3] u[4,5] u[5,0] u[5,2] u[5,3] u[5,4] r[0,1] r[0,2]
 r[0,3] r[0,4] r[0,5] r[1,0] r[1,3] r[2,0] r[2,3] r[2,4] r[2,5] r[3,0]
 r[3,1] r[3,2] r[3,4] r[3,5] r[4,0] r[4,2] r[4,3] r[4,5] r[5,0] r[5,2]
 r[5,3] r[5,4]
End
